# Objective value = 15
WA1n 0
WA1p 0
WA2n 1
WA2p 0
WB1n 0
WB1p 0
WB2n 0
WB2p 1
WC1n 1
WC1p 0
WD1n 2
WD1p 0
WD2n 0
WD2p 0
WE1n 0
WE1p 1
WE2n 0
WE2p 1
WF1n 0
WF1p 2
WF2n 0
WF2p 0
WT1n 0
WT1p 3
WT2n 0
WT2p 0
100 101
a 1
b 1
c 1
d 1
e 1
f 0
g 0
h 1
i 1
j 1
k 1
l 1
m 1
